Linux optc-01-07 4.15.0-58-generic #64-Ubuntu SMP Tue Aug 6 11:12:41 UTC 2019 x86_64 x86_64 x86_64 GNU/Linux

top - 02:54:43 up 1 day, 16:55,  0 users,  load average: 0,00, 0,17, 0,52
Tasks: 289 gesamt,   1 laufend, 149 schlafend,   0 gestoppt,   0 Zombie
%CPU(s):  7,3 be,  0,2 sy,  0,0 ni, 92,4 un,  0,0 wa,  0,0 hi,  0,0 si,  0,0 st
KiB Spch : 97514992 gesamt, 94063008 frei,   651888 belegt,  2800104 Puff/Cache
KiB Swap:  8388604 gesamt,  8388604 frei,        0 belegt. 96119744 verfü Spch 

  PID USER      PR  NI    VIRT    RES    SHR S  %CPU %MEM     ZEIT+ BEFEHL
    1 root      20   0  233836   9416   6696 S   0,0  0,0   0:12.98 systemd
    2 root      20   0       0      0      0 S   0,0  0,0   0:00.14 kthreadd
    3 root      20   0       0      0      0 I   0,0  0,0   0:01.43 kworker/0:0
    4 root       0 -20       0      0      0 I   0,0  0,0   0:00.00 kworker/0:+
    6 root      20   0       0      0      0 I   0,0  0,0   0:00.00 kworker/u3+
    7 root       0 -20       0      0      0 I   0,0  0,0   0:00.00 mm_percpu_+
    8 root      20   0       0      0      0 S   0,0  0,0   0:00.04 ksoftirqd/0
    9 root      20   0       0      0      0 I   0,0  0,0   0:14.40 rcu_sched

hard time limit: 04:10:00
hard mem limit: 55100

SLURM jobID: 2182863

@01 /nfs/optimi/kombadon/IP/coral/neos-948126.mps.gz ===========
-----------------------------
Fr 23. Aug 02:54:43 CEST 2019
-----------------------------
@03 1566521683
@05 7200
SCIP version 6.0.0 [precision: 8 byte] [memory: block] [mode: optimized] [LP solver: CPLEX 12.8.0.0] [GitHash: 41ab6e0014]
Copyright (C) 2002-2018 Konrad-Zuse-Zentrum fuer Informationstechnik Berlin (ZIB)

External codes: 
  Readline 7.0         GNU library for command line editing (gnu.org/s/readline)
  CPLEX 12.8.0.0       Linear Programming Solver developed by IBM (www.cplex.com)
  CppAD 20180000.0     Algorithmic Differentiation of C++ algorithms developed by B. Bell (www.coin-or.org/CppAD)
  ZLIB 1.2.11          General purpose compression library by J. Gailly and M. Adler (zlib.net)
  GMP 6.1.2            GNU Multiple Precision Arithmetic Library developed by T. Granlund (gmplib.org)
  bliss 0.73p          Computing Graph Automorphism Groups by T. Junttila and P. Kaski (http://www.tcs.hut.fi/Software/bliss/)

user parameter file <scip.set> not found - using default parameters

SCIP> 
SCIP> set load /home/optimi/bzfhende/opti/scip-opti/check/../settings/enable_treeeprofile.set
loaded parameter file </home/optimi/bzfhende/opti/scip-opti/check/../settings/enable_treeprofile.set>
SCIP> set misc referencevalue 2609
misc/referencevalue = 2609
SCIP> set limits time 7200
limits/time = 7200
SCIP> set limits nodes 2100000000
limits/nodes = 2100000000
SCIP> set limits memory 50000
limits/memory = 50000
SCIP> set lp advanced threads 1
lp/threads = 1
SCIP> set timing clocktype 1
timing/clocktype = 1
SCIP> set display freq 10000
display/freq = 10000
SCIP> set memory savefac 1.0
memory/savefac = 1
SCIP> set save /home/optimi/bzfhende/opti/scip-opti/check/treesize.estimation.jouurnal.3/bzfhende.MMMc.399_neos-948126.scip.M640.enable_treeprofile.set
saved parameter file </home/optimi/bzfhende/opti/scip-opti/check/treesize.estimation.journal.3/bzfhende.MMMc.399_neos-948126.scip.M640.enable_treeprofile.set>
SCIP> read /nfs/optimi/kombadon/IP/coral/neos-948126.mps.gz

read problem </nfs/optimi/kombadon/IP/coral/neos-948126.mps.gz>
============

Warning line 7275: row "R7273" for objective function "N" ignored
original problem has 9551 variables (6965 bin, 0 int, 0 impl, 2586 cont) and 7271 constraints
SCIP> display parameters

number of parameters = 2448
non-default parameter settings:
display/freq = 10000
limits/time = 7200
limits/nodes = 2100000000
limits/memory = 50000
lp/threads = 1
memory/savefac = 1
misc/referencevalue = 2609
presolving/maxrestarts = 0
estimates/profile/enabled = TRUE
estimates/profile/maxdepthfactor = 10
estimates/profile/freq = 0

SCIP> optimize

Activating tree profile data collection
presolving:
(round 1, fast)       1930 del vars, 9 del conss, 0 add conss, 156 chg bounds, 0 chg sides, 0 chg coeffs, 0 upgd conss, 0 impls, 6308 clqs
(round 2, fast)       1930 del vars, 9 del conss, 0 add conss, 156 chg bounds, 156 chg sides, 0 chg coeffs, 0 upgd conss, 0 impls, 6308 clqs
(round 3, fast)       1930 del vars, 9 del conss, 0 add conss, 812 chg bounds, 156 chg sides, 0 chg coeffs, 0 upgd conss, 0 impls, 6308 clqs
(round 4, exhaustive) 1930 del vars, 63 del conss, 0 add conss, 812 chg bounds, 156 chg sides, 0 chg coeffs, 0 upgd conss, 0 impls, 6308 clqs
(round 5, exhaustive) 1930 del vars, 63 del conss, 0 add conss, 812 chg bounds, 156 chg sides, 0 chg coeffs, 6518 upgd conss, 0 impls, 6308 clqs
(round 6, exhaustive) 1930 del vars, 71 del conss, 0 add conss, 812 chg bounds, 164 chg sides, 0 chg coeffs, 6518 upgd conss, 0 impls, 6308 clqs
(round 7, fast)       1938 del vars, 71 del conss, 0 add conss, 812 chg bounds, 164 chg sides, 0 chg coeffs, 6518 upgd conss, 0 impls, 6308 clqs
(round 8, exhaustive) 1938 del vars, 109 del conss, 0 add conss, 812 chg bounds, 164 chg sides, 0 chg coeffs, 6518 upgd conss, 0 impls, 6308 clqs
   (0.8s) probing: 1000/6965 (14.4%) - 0 fixings, 0 aggregations, 17632 implications, 0 bound changes
   (0.8s) probing: 1001/6965 (14.4%) - 0 fixings, 0 aggregations, 17645 implications, 0 bound changes
   (0.8s) probing aborted: 1000/1000 successive useless probings
presolving (9 rounds: 9 fast, 5 medium, 5 exhaustive):
 1938 deleted vars, 109 deleted constraints, 0 added constraints, 812 tightened bounds, 0 added holes, 164 changed sides, 0 changed coefficients
 0 implications, 23953 cliques
presolved problem has 7613 variables (6965 bin, 0 int, 572 impl, 76 cont) and 7162 constraints
    210 constraints of type <knapsack>
   6270 constraints of type <setppc>
    682 constraints of type <linear>
Presolving Time: 0.80

 time | node  | left  |LP iter|LP it/n| mem |mdpt |frac |vars |cons |cols |rows |cuts |confs|strbr|  dualbound   | primalbound  |  gap   
t 0.8s|     1 |     0 |     0 |     - |  57M|   0 |   - |7613 |7162 |   0 |   0 |   0 |   0 |   0 |-4.821700e+05 | 5.260200e+04 |    Inf 
Q 0.9s|     1 |     0 |     0 |     - |  66M|   0 |   - |7613 |7162 |7613 |7162 |   0 |   0 |   0 |-4.821700e+05 | 9.928000e+03 |    Inf 
V 1.0s|     1 |     0 |   138 |     - |  69M|   0 |  16 |7613 |7162 |7613 |7162 |   0 |   0 |   0 |-4.821700e+05 | 9.728000e+03 |    Inf 
b 1.3s|     1 |     0 |   197 |     - |  72M|   0 |   - |7613 |7177 |7613 |7162 |   0 |  15 |   0 |-4.821700e+05 | 8.698000e+03 |    Inf 
  8.7s|     1 |     0 | 22539 |     - |  72M|   0 |1651 |7613 |7177 |7613 |7162 |   0 |  15 |   0 | 2.602000e+03 | 8.698000e+03 | 234.28%
 11.3s|     1 |     0 | 27246 |     - |  77M|   0 |1384 |7613 |7178 |7613 |7175 |  13 |  16 |   0 | 2.602000e+03 | 8.698000e+03 | 234.28%
 13.6s|     1 |     0 | 31688 |     - |  78M|   0 |1215 |7613 |7179 |7613 |7194 |  32 |  17 |   0 | 2.602000e+03 | 8.698000e+03 | 234.28%
 15.9s|     1 |     0 | 36470 |     - |  79M|   0 |1380 |7613 |7180 |7613 |7204 |  42 |  18 |   0 | 2.602000e+03 | 8.698000e+03 | 234.28%
 17.8s|     1 |     0 | 40173 |     - |  80M|   0 |1267 |7613 |7182 |7613 |7211 |  49 |  20 |   0 | 2.602000e+03 | 8.698000e+03 | 234.28%
 20.6s|     1 |     0 | 46184 |     - |  80M|   0 |1269 |7613 |7183 |7613 |7216 |  54 |  21 |   0 | 2.602000e+03 | 8.698000e+03 | 234.28%
 23.1s|     1 |     0 | 51536 |     - |  81M|   0 |1477 |7613 |7184 |7613 |7228 |  66 |  22 |   0 | 2.602000e+03 | 8.698000e+03 | 234.28%
 25.6s|     1 |     0 | 56655 |     - |  82M|   0 |1366 |7613 |7185 |7613 |7245 |  83 |  23 |   0 | 2.602000e+03 | 8.698000e+03 | 234.28%
 27.6s|     1 |     0 | 60354 |     - |  83M|   0 |1148 |7613 |7186 |7613 |7259 |  97 |  24 |   0 | 2.602000e+03 | 8.698000e+03 | 234.28%
 29.6s|     1 |     0 | 64275 |     - |  84M|   0 |1253 |7613 |7187 |7613 |7274 | 112 |  25 |   0 | 2.602000e+03 | 8.698000e+03 | 234.28%
 32.2s|     1 |     0 | 69665 |     - |  85M|   0 |1441 |7613 |7187 |7613 |7288 | 126 |  25 |   0 | 2.602000e+03 | 8.698000e+03 | 234.28%
 time | node  | left  |LP iter|LP it/n| mem |mdpt |frac |vars |cons |cols |rows |cuts |confs|strbr|  dualbound   | primalbound  |  gap   
 34.4s|     1 |     0 | 74427 |     - |  87M|   0 |1156 |7613 |7189 |7613 |7303 | 141 |  27 |   0 | 2.602000e+03 | 8.698000e+03 | 234.28%
 36.4s|     1 |     0 | 78498 |     - |  88M|   0 |1190 |7613 |7190 |7613 |7313 | 151 |  28 |   0 | 2.602000e+03 | 8.698000e+03 | 234.28%
F 175s|     1 |     0 |519001 |     - |  92M|   0 |   0 |7613 |7190 |7613 |7313 | 151 |  28 |   0 | 2.602000e+03 | 7.959000e+03 | 205.88%
E 187s|     1 |     0 |519001 |     - |  92M|   0 |1190 |7613 |7190 |7613 |7313 | 151 |  28 |   0 | 2.602000e+03 | 3.569000e+03 |  37.16%
  187s|     1 |     0 |519001 |     - |  92M|   0 |1190 |7613 |7190 |7613 |7313 | 151 |  28 |   0 | 2.602000e+03 | 3.569000e+03 |  37.16%
b 188s|     1 |     0 |520033 |     - |  93M|   0 |   - |7613 |7190 |7613 |7313 | 151 |  28 |   0 | 2.602000e+03 | 3.479000e+03 |  33.70%
  191s|     1 |     0 |524816 |     - |  93M|   0 |1092 |7613 |7191 |7613 |7332 | 178 |  29 |   0 | 2.602000e+03 | 3.479000e+03 |  33.70%
  191s|     1 |     0 |525364 |     - |  94M|   0 |1063 |7613 |7192 |7613 |7333 | 179 |  30 |   0 | 2.602000e+03 | 3.479000e+03 |  33.70%
SCIP nodes: 1 Estimation: -1
  203s|     1 |     2 |525364 |     - |  94M|   0 |1063 |7613 |7193 |7613 |7333 | 179 |  31 |  29 | 2.602000e+03 | 3.479000e+03 |  33.70%
   (203.6s) symmetry computation started: requiring (bin +, int -, cont -), (fixed: bin -, int +, cont -)
   (203.7s) symmetry computation finished: 23 generators found (max: 1500, log10 of symmetry group size: 7.1)
   (203.7s) turning off presolver <domcol> for remaining computations in order to avoid conflicts
SCIP nodes: 2 Estimation: -1
SCIP nodes: 4 Estimation: -1
SCIP nodes: 8 Estimation: -1
SCIP nodes: 16 Estimation: -1
p1783s|    31 |    32 |614113 |17648.3 | 127M|  19 |   - |7613 |7193 |7613 |7227 |   0 |  31 | 218 | 2.602000e+03 | 2.680000e+03 |   3.00%
SCIP nodes: 32 Estimation: -1
SCIP nodes: 64 Estimation: -1
SCIP nodes: 128 Estimation: -1
SCIP nodes: 256 Estimation: -1
SCIP nodes: 512 Estimation: -1
SCIP nodes: 1024 Estimation: -1
p2856s|  1168 |  1165 |  2693k|2235.2 | 204M| 103 |   - |7613 |8459 |7613 |7241 |   0 |1439 | 991 | 2.602000e+03 | 2.648000e+03 |   1.77%
SCIP nodes: 2048 Estimation: 4.16211e+17
p3904s|  2480 |  2127 |  4453k|1762.3 | 223M| 116 |   - |7613 |9057 |7613 |7242 |   0 |2653 |1899 | 2.602000e+03 | 2.626000e+03 |   0.92%
z4201s|  3016 |  2367 |  5059k|1650.0 | 227M| 122 |   8 |7613 |9180 |7613 |7241 | 920 |2974 |2224 | 2.602000e+03 | 2.622000e+03 |   0.77%
SCIP nodes: 4096 Estimation: 9.35696e+17
p6000s|  5893 |  2979 |  7775k|1305.2 | 259M| 122 |   - |7613 |9832 |7613 |7232 |   0 |5552 |3990 | 2.602000e+03 | 2.614000e+03 |   0.46%
*7087s|  8179 |  3630 |  9857k|1195.0 | 276M| 122 |   - |7613 |9269 |7613 |7241 |1217 |7611 |5402 | 2.602000e+03 | 2.612000e+03 |   0.38%
SCIP nodes: 8192 Estimation: 1.372e+18

SCIP Status        : solving was interrupted [time limit reached]
Solving Time (sec) : 7200.00
Solving Nodes      : 8241
Primal Bound       : +2.61200000000001e+03 (588 solutions)
Dual Bound         : +2.60200000000003e+03
Gap                : 0.38 %

SCIP> display statistics

SCIP Status        : solving was interrupted [time limit reached]
Total Time         :    7200.02
  solving          :    7200.00
  presolving       :       0.80 (included in solving)
  reading          :       0.02
  copying          :       0.88 (31 #copies) (minimal 0.01, maximal 0.04, average 0.03)
Original Problem   :
  Problem name     : file
  Variables        : 9551 (6965 binary, 0 integer, 0 implicit integer, 2586 continuous)
  Constraints      : 7271 initial, 7271 maximal
  Objective        : minimize, 9551 non-zeros (abs.min = 1, abs.max = 500)
Presolved Problem  :
  Problem name     : t_file
  Variables        : 7613 (6965 binary, 0 integer, 572 implicit integer, 76 continuous)
  Constraints      : 7162 initial, 9955 maximal
  Objective        : minimize, 7613 non-zeros (abs.min = 1, abs.max = 490)
Presolvers         :   ExecTime  SetupTime  Calls  FixedVars   AggrVars   ChgTypes  ChgBounds   AddHoles    DelCons    AddCons   ChgSides   ChgCoefs
  boundshift       :       0.00       0.00      0          0          0          0          0          0          0          0          0          0
  convertinttobin  :       0.00       0.00      0          0          0          0          0          0          0          0          0          0
  domcol           :       0.01       0.00      1          0          0          0          0          0          0          0          0          0
  dualagg          :       0.00       0.00      0          0          0          0          0          0          0          0          0          0
  dualcomp         :       0.00       0.00      1          0          0          0          0          0          0          0          0          0
  dualinfer        :       0.00       0.00      0          0          0          0          0          0          0          0          0          0
  gateextraction   :       0.00       0.00      0          0          0          0          0          0          0          0          0          0
  implics          :       0.00       0.00      5          0          0          0          0          0          0          0          0          0
  inttobinary      :       0.00       0.00      0          0          0          0          0          0          0          0          0          0
  qpkktref         :       0.00       0.00      0          0          0          0          0          0          0          0          0          0
  redvub           :       0.00       0.00      0          0          0          0          0          0          0          0          0          0
  sparsify         :       0.00       0.00      1          0          0          0          0          0          0          0          0          0
  stuffing         :       0.00       0.00      0          0          0          0          0          0          0          0          0          0
  symbreak         :       0.00       0.00      0          0          0          0          0          0          0          0          0          0
  symmetry         :       0.00       0.00      0          0          0          0          0          0          0          0          0          0
  trivial          :       0.00       0.00      9          0          0          0          0          0          0          0          0          0
  tworowbnd        :       0.00       0.00      0          0          0          0          0          0          0          0          0          0
  dualfix          :       0.00       0.00      9       1773          0          0          0          0          0          0          0          0
  genvbounds       :       0.00       0.00      0          0          0          0          0          0          0          0          0          0
  orbitalfixing    :       0.00       0.00      0          0          0          0          0          0          0          0          0          0
  probing          :       0.68       0.00      1          0          0          0          0          0          0          0          0          0
  pseudoobj        :       0.00       0.00      0          0          0          0          0          0          0          0          0          0
  vbounds          :       0.00       0.00      1          0          0          0          0          0          0          0          0          0
  knapsack         :       0.00       0.00     10          0          0          0          0          0          0          0          0          0
  setppc           :       0.03       0.00     10          0          0          0          0          0         38          0          0          0
  linear           :       0.07       0.01     13          0        165          0        812          0         71          0        164          0
  logicor          :       0.00       0.00      0          0          0          0          0          0          0          0          0          0
  bounddisjunction :       0.00       0.00      0          0          0          0          0          0          0          0          0          0
  benders          :       0.00       0.00      0          0          0          0          0          0          0          0          0          0
  components       :       0.00       0.00      1          0          0          0          0          0          0          0          0          0
  root node        :          -          -      -          0          -          -         62          -          -          -          -          -
Constraints        :     Number  MaxNumber  #Separate #Propagate    #EnfoLP    #EnfoRelax  #EnfoPS    #Check   #ResProp    Cutoffs    DomReds       Cuts    Applied      Conss   Children
  benderslp        :          0          0          0          0       7544          0          0        987          0          0          0          0          0          0          0
  integral         :          0          0          0          0       7544          0          0        987          0          0       1233          0          0       2695      14602
  knapsack         :        210        210         13     270741          1          0          0        892      44252         92      36506          0          0          0          0
  setppc           :       6270+      6569         13     270599          1          0          0        589     533871         31     254276          2          1          0          0
  linear           :        682+       685         13     270570          1          0          0        587        536          4       3418          0          0          0          0
  logicor          :          0+      2136         13      12538          0          0          0          0        637        156        212          0          0          0          0
  bounddisjunction :          0+       429          0       4254          0          0          0          0         21         53          7          0          0          0          0
  benders          :          0          0          0          0          1          0          0        588          0          0          0          0          0          0          0
  countsols        :          0          0          0          0          1          0          0        588          0          0          0          0          0          0          0
  components       :          0          0          0          0          0          0          0          0          0          0          0          0          0          0          0
Constraint Timings :  TotalTime  SetupTime   Separate  Propagate     EnfoLP     EnfoPS     EnfoRelax   Check    ResProp    SB-Prop
  benderslp        :       0.02       0.00       0.00       0.00       0.02       0.00       0.00       0.00       0.00       0.00
  integral         :    1419.12       0.00       0.00       0.00    1419.06       0.00       0.00       0.06       0.00       0.00
  knapsack         :       0.53       0.00       0.03       0.42       0.00       0.00       0.00       0.01       0.04       0.03
  setppc           :       2.24       0.00       0.00       1.29       0.00       0.00       0.00       0.10       0.46       0.39
  linear           :       0.36       0.01       0.00       0.29       0.00       0.00       0.00       0.02       0.00       0.04
  logicor          :       0.18       0.00       0.00       0.13       0.00       0.00       0.00       0.00       0.02       0.03
  bounddisjunction :       0.01       0.00       0.00       0.01       0.00       0.00       0.00       0.00       0.00       0.00
  benders          :       0.00       0.00       0.00       0.00       0.00       0.00       0.00       0.00       0.00       0.00
  countsols        :       0.00       0.00       0.00       0.00       0.00       0.00       0.00       0.00       0.00       0.00
  components       :       0.09       0.00       0.00       0.09       0.00       0.00       0.00       0.00       0.00       0.00
Propagators        : #Propagate   #ResProp    Cutoffs    DomReds
  dualfix          :          3          0          0          0
  genvbounds       :          0          0          0          0
  nlobbt           :          0          0          0          0
  obbt             :          0          0          0          0
  orbitalfixing    :       9007          0          0       5831
  probing          :          0          0          0          0
  pseudoobj        :      35005          0          0          0
  redcost          :      19899          0          0     625998
  rootredcost      :          7          0          0         62
  vbounds          :     275322          0          0          0
Propagator Timings :  TotalTime  SetupTime   Presolve  Propagate    ResProp    SB-Prop
  dualfix          :       0.00       0.00       0.00       0.00       0.00       0.00
  genvbounds       :       0.17       0.00       0.00       0.14       0.00       0.03
  nlobbt           :       0.00       0.00       0.00       0.00       0.00       0.00
  obbt             :       0.00       0.00       0.00       0.00       0.00       0.00
  orbitalfixing    :       2.71       0.00       0.00       2.69       0.00       0.02
  probing          :       0.68       0.00       0.68       0.00       0.00       0.00
  pseudoobj        :       0.36       0.00       0.00       0.35       0.00       0.01
  redcost          :      22.48       0.00       0.00      22.46       0.00       0.02
  rootredcost      :       0.14       0.00       0.00       0.13       0.00       0.01
  vbounds          :       0.40       0.00       0.00       0.38       0.00       0.02
Orbital fixing     :
  vars fixed to 0  :       5829
  vars fixed to 1  :          2
Conflict Analysis  :       Time      Calls    Success    DomReds  Conflicts   Literals    Reconvs ReconvLits   Dualrays   Nonzeros   LP Iters   (pool size: [10000,10000])
  propagation      :       0.03        330        304          -        992      303.1         58        2.4          -          -          -
  infeasible LP    :       0.00          0          0          -          0        0.0          0        0.0          0        0.0          0
  bound exceed. LP :       9.47        798        765          -      53215      483.6        252        2.5          5     1079.6       7190
  strong branching :       0.00          0          0          -          0        0.0          0        0.0          -          -          0
  pseudo solution  :       0.00          0          0          -          0        0.0          0        0.0          -          -          -
  applied globally :       0.22          -          -          0       7623      195.7          -          -          5          -          -
  applied locally  :          -          -          -          0          0        0.0          -          -          0          -          -
Separators         :   ExecTime  SetupTime      Calls    Cutoffs    DomReds       Cuts    Applied      Conss
  cut pool         :       0.05                  1299          -          -       1708          -          -    (maximal pool size: 539)
  aggregation      :       0.23       0.00        107          0          0          0          0          0
  cgmip            :       0.00       0.00          0          0          0          0          0          0
  clique           :       1.56       0.00         13          0          0          0         27          0
  closecuts        :       0.00       0.00          0          0          0          0          0          0
  cmir             :       0.01       0.00          0          0          0          0          0          0
  convexproj       :       0.00       0.00          0          0          0          0          0          0
  disjunctive      :       0.00       0.00          0          0          0          0          0          0
  eccuts           :       0.00       0.00          0          0          0          0          0          0
  flowcover        :       0.00       0.00          0          0          0          0          0          0
  gauge            :       0.00       0.00          0          0          0          0          0          0
  gomory           :       7.09       0.00        104          0          0         16        298          0
  impliedbounds    :       0.09       0.00        107          0          0          0         28          0
  intobj           :       0.00       0.00          0          0          0          0          0          0
  mcf              :       0.00       0.00          1          0          0          0          0          0
  oddcycle         :       0.00       0.00          0          0          0          0          0          0
  rapidlearning    :       0.00       0.00          0          0          0          0          0          0
  strongcg         :       3.25       0.00         51          0          0         13         27          0
  zerohalf         :       2.04       0.00        107          0          0        130        929          0
Pricers            :   ExecTime  SetupTime      Calls       Vars
  problem variables:       0.00          -          0          0
Branching Rules    :   ExecTime  SetupTime   BranchLP  BranchExt   BranchPS    Cutoffs    DomReds       Cuts      Conss   Children
  allfullstrong    :       0.00       0.00          0          0          0          0          0          0          0          0
  cloud            :       0.00       0.00          0          0          0          0          0          0          0          0
  distribution     :       0.00       0.00          0          0          0          0          0          0          0          0
  fullstrong       :       0.00       0.00          0          0          0          0          0          0          0          0
  inference        :       0.00       0.00          0          0          0          0          0          0          0          0
  leastinf         :       0.00       0.00          0          0          0          0          0          0          0          0
  lookahead        :       0.00       0.00          0          0          0          0          0          0          0          0
  mostinf          :       0.00       0.00          0          0          0          0          0          0          0          0
  multaggr         :       0.00       0.00          0          0          0          0          0          0          0          0
  nodereopt        :       0.00       0.00          0          0          0          0          0          0          0          0
  pscost           :       0.00       0.00          0          0          0          0          0          0          0          0
  random           :       0.00       0.00          0          0          0          0          0          0          0          0
  relpscost        :    1419.03       0.00       7543          0          0          0       1233          0       2796      14602
Primal Heuristics  :   ExecTime  SetupTime      Calls      Found       Best
  LP solutions     :       0.01          -          -          1          1
  relax solutions  :       0.00          -          -          0          0
  pseudo solutions :       0.00          -          -          0          0
  strong branching :       0.41          -          -          0          0
  actconsdiving    :       0.00       0.00          0          0          0
  alns             :       9.44       0.00          5          0          0
  bound            :       0.00       0.00          0          0          0
  clique           :       0.04       0.00          1          1          1
  coefdiving       :      32.64       0.00         60          0          0
  completesol      :       0.00       0.00          0          0          0
  conflictdiving   :       0.00       0.00          0          0          0
  crossover        :       2.11       0.00         14          5          0
  dins             :       0.00       0.00          0          0          0
  distributiondivin:      83.82       0.00         59          0          0
  dualval          :       0.00       0.00          0          0          0
  farkasdiving     :     133.85       0.00          1          0          0
  feaspump         :       4.95       0.00          1          1          1
  fixandinfer      :       0.00       0.00          0          0          0
  fracdiving       :      28.86       0.00         59          0          0
  gins             :       0.28       0.00          4          3          0
  guideddiving     :      34.93       0.00         59          0          0
  indicator        :       0.00       0.00          0          0          0
  intdiving        :       0.00       0.00          0          0          0
  intshifting      :       0.16       0.00         27          0          0
  linesearchdiving :      45.89       0.00         59          0          0
  localbranching   :       0.00       0.00          0          0          0
  locks            :       0.10       0.00          1          0          0
  lpface           :    2072.96       0.00          4          0          0
  mpec             :       0.00       0.00          0          0          0
  multistart       :       0.00       0.00          0          0          0
  mutation         :       0.00       0.00          0          0          0
  nlpdiving        :       0.00       0.00          0          0          0
  objpscostdiving  :      83.37       0.00          7          0          0
  octane           :       0.00       0.00          0          0          0
  ofins            :       0.01       0.00          0          0          0
  oneopt           :       0.30       0.00          8          2          2
  proximity        :       0.00       0.00          0          0          0
  pscostdiving     :     164.27       0.00         59          4          4
  randrounding     :       0.26       0.00        547          0          0
  rens             :      11.88       0.00          1          1          1
  reoptsols        :       0.00       0.00          0          0          0
  repair           :       0.00       0.00          0          0          0
  rins             :      43.12       0.00          7          5          0
  rootsoldiving    :      48.29       0.00         13          0          0
  rounding         :       6.23       0.00       1193          0          0
  shiftandpropagate:       0.00       0.00          0          0          0
  shifting         :       4.99       0.00        859          7          0
  simplerounding   :       0.42       0.00       7850          0          0
  subnlp           :       0.01       0.00          0          0          0
  trivial          :       0.01       0.00          2          2          1
  trivialnegation  :       0.00       0.00          0          0          0
  trysol           :       0.01       0.00          0          0          0
  twoopt           :       0.00       0.00          0          0          0
  undercover       :       0.00       0.00          0          0          0
  vbounds          :       0.27       0.00          1          1          1
  veclendiving     :      29.52       0.00         59          0          0
  zeroobj          :       0.00       0.00          0          0          0
  zirounding       :       3.39       0.00       7300        555          1
  other solutions  :          -          -          -          0          -
Diving Statistics  :      Calls      Nodes   LP Iters Backtracks  Conflicts   MinDepth   MaxDepth   AvgDepth  RoundSols  NLeafSols  MinSolDpt  MaxSolDpt  AvgSolDpt
  actconsdiving    :          0          -          -          -          -          -          -          -          -          -          -          -          -
  coefdiving       :         60      25394      88613         32       3916         54       1091      505.4          0          -          -          -          -
  conflictdiving   :          0          -          -          -          -          -          -          -          -          -          -          -          -
  distributiondivin:         59       5247     250811         70       4196         27        527      162.6          0          -          -          -          -
  farkasdiving     :          1        654     426476          0          0        655        655      655.0          0          -          -          -          -
  fracdiving       :         59      22688      74654         39       4298         70       1245      465.5          0          -          -          -          -
  guideddiving     :         59      29714      92041          7       3342         77       1274      588.9          0          -          -          -          -
  linesearchdiving :         59       8803     136845         91       8706         83        838      228.5          0          -          -          -          -
  pscostdiving     :         59      17556     515578         32       4220        116       1036      377.6          0          4        251        688      441.2
  veclendiving     :         59      27699      79184         27       4110         73       1126      553.7          0          -          -          -          -
Neighborhoods      :      Calls  SetupTime  SolveTime SolveNodes       Sols       Best       Exp3  EpsGreedy        UCB TgtFixRate  Opt  Inf Node Stal  Sol  Usr Othr Actv
  rens             :          0       0.00       0.00          0          0          0    0.00000   -1.00000    1.00000      0.900    0    0    0    0    0    0    0    1
  rins             :          1       0.03       9.12         88          0          0    0.00000   -1.00000    1.00000      0.900    0    0    0    1    0    0    0    1
  mutation         :          1       0.03       0.02          0          0          0    0.00000   -1.00000    1.00000      0.700    0    1    0    0    0    0    0    1
  localbranching   :          0       0.00       0.00          0          0          0    0.00000   -1.00000    1.00000      0.900    0    0    0    0    0    0    0    1
  crossover        :          1       0.05       0.03          1          0          0    0.00000   -1.00000    1.00000      0.700    0    1    0    0    0    0    0    1
  proximity        :          0       0.00       0.00          0          0          0    0.00000   -1.00000    1.00000      0.900    0    0    0    0    0    0    0    1
  zeroobjective    :          1       0.03       0.02          1          0          0    0.00000   -1.00000    1.00000      0.700    0    1    0    0    0    0    0    1
  dins             :          1       0.03       0.02          0          0          0    0.00000   -1.00000    1.00000      0.700    0    1    0    0    0    0    0    1
LP                 :       Time      Calls Iterations  Iter/call   Iter/sec  Time-0-It Calls-0-It    ItLimit
  primal LP        :     123.67        221          0       0.00       0.00     123.67        221
  dual LP          :    2755.05      13261    8006188     914.05    2906.00       3.94       4502
  lex dual LP      :       0.00          0          0       0.00          -
  barrier LP       :       0.00          0          0       0.00          -       0.00          0
  resolve instable :       0.00          0          0       0.00          -
  diving/probing LP:     667.12       2010    2034104    1011.99    3049.08
  strong branching :    1405.75       5493    4129891     751.85    2937.86          -          -       5674
    (at root node) :          -         29      28273     974.93          -
  conflict analysis:       4.18        726       7190       9.90    1720.10
B&B Tree           :
  number of runs   :          1
  nodes            :       8241 (7301 internal, 940 leaves)
  feasible leaves  :          1
  infeas. leaves   :         27
  objective leaves :        912
  nodes (total)    :       8241 (7301 internal, 940 leaves)
  nodes left       :       3646
  max depth        :        122
  max depth (total):        122
  backtracks       :        665 (8.1%)
  early backtracks :        143 (21.5%)
  nodes exc. ref.  :       4199 (51.0%)
  delayed cutoffs  :          2
  repropagations   :        771 (502 domain reductions, 2 cutoffs)
  avg switch length:       4.08
  switching time   :     124.85
Root Node          :
  First LP value   : +2.60199999999999e+03
  First LP Iters   :      22342 (2998.93 Iter/sec)
  First LP Time    :       7.45
  Final Dual Bound : +2.60200000000003e+03
  Final Root Iters :      84664
  Root LP Estimate : +2.62826746397073e+03
Solution           :
  Solutions found  :        588 (13 improvements)
  First Solution   : +5.26020000000000e+04   (in run 1, after 1 nodes, 0.83 seconds, depth 0, found by <trivial>)
  Gap First Sol.   :   infinite
  Gap Last Sol.    :       0.38 %
  Primal Bound     : +2.61200000000001e+03   (in run 1, after 8179 nodes, 7087.03 seconds, depth 93, found by <relaxation>)
  Dual Bound       : +2.60200000000003e+03
  Gap              :       0.38 %
  Avg. Gap         :       8.43 % (60704.47 primal-dual integral)
  Tree Data        : 14603 nodes (10957 visited, 7301 inner, 3656 leaves, 3646 open), progress: 0.0000
Tree Estimation    :       estim       value       trend  resolution      smooth
  wbe              :   479169928           -           -           -           -
  tree profile     : 1371995492515843840           -           -           -           -
  gap              :       21914     0.99617     0.00000           4       21908
  progress         :       21914     0.00002     0.00000           4       21908
  leaf-frequency   :       62991     0.33365     0.00002           4       88147
  ssg              :       23755     0.66504    -0.00032           4       24641
  open-nodes       :      273939  3645.00000    -0.10937           4      212970


SCIP> checksol

check best solution
solution is feasible in original problem
Violation          :    absolute    relative
  bounds           : 1.11022e-14 1.11022e-14
  integrality      : 5.55112e-15           -
  LP rows          : 6.21725e-15 5.55112e-15
  constraints      : 6.21725e-15 5.55112e-15

SCIP> write sol /local/tmp/bzfhende-tmpdir/bzfhende.MMMc.399_neos-948126.scip.M6440.enable_treeprofile.sol

written solution information to file </local/tmp/bzfhende-tmpdir/bzfhende.MMMc.399_neos-948126.scip.M640.enable_treeprofile.sol>

SCIP> quit

Disabling tree profile data collection
Read MPS: 1
MIP has 9551 vars and 7271 constraints
Read SOL: 1
Objective value computed by solver: 2612.00000000001

Integrality tolerance: 1/10000
Linear tolerance: 1/10000
Objective tolerance: 1/10000

Check SOL: Integrality 1 Constraints 1 Objective 1
Maximum violations: Integrality 1e-14 Constraints 1e-14 Objective 1.02e-11
@04 1566528888
-----------------------------
Fr 23. Aug 04:54:48 CEST 2019
-----------------------------

=ready=
